webassembly/ejemplos_dzn/folder8_json_24.dzn
TERM = { '.', 's(2)', 'in_1', 'local_1', 'in_6', 'in_2', 'in_4', 'in_3', 's(1)', 's(0)', 'in_7', 'in_5', 's(3)', 'in_0'};
null = '.';
s = 8;
n = 14;
ndeps = 4;
max_registers_sz = 3;
NR = 0;
registers = [| |];
dependencies = [|'i32.store16_2', 'i32.store16_3', |'i32.store16_3', 'i32.load_4', |'i32.load_4', 'i32.store16_5', |'i32.store16_5', 'i32.load_7'|];
GET_ENUM = { GET1, GET2, GET3};
SET_ENUM = { SET1, SET2, SET3};
TEE_ENUM = { TEE1, TEE2, TEE3};
N = 8;
OP = { 'i32.add_0', 'i32.store16_2', 'i32.store16_3', 'i32.load_4', 'i32.store16_5', 'i32.add_1', 'i32.load_7', 'local.get_0' };
in_ops = [2, 2, 2, 1, 2, 2, 1, 0 ];
out_ops = [1, 0, 0, 1, 0, 1, 1, 1 ];
in1 = ['local_1', 's(0)', 'in_2', 'in_4', 's(1)', 'in_6', 's(2)', '.' ];
in2 = ['in_0', 'in_1', 'in_3', '.', 'in_5', 'in_7', '.', '.' ];
in3 = ['.', '.', '.', '.', '.', '.', '.', '.' ];
out1 = ['s(0)', '.', '.', 's(1)', '.', 's(2)', 's(3)', 'local_1' ];
out2 = ['.', '.', '.', '.', '.', '.', '.', '.' ];
out3 = ['.', '.', '.', '.', '.', '.', '.', '.' ];
comm = [true, false, false, false, false, true, false, false ];
gas = [1, 1, 1, 1, 1, 1, 1, 1 ];
sz = [1, 1, 1, 1, 1, 1, 1, 1 ];
stor = [false, true, true, false, true, false, false, false ];
lb = [ 1, 1, 1, 1, 1, 1, 1, 1 ];
ub = [ 8, 8, 8, 8, 8, 8, 8, 8 ];
startstack = [ 'in_0', 'in_1', 'in_2', 'in_3', 'in_4', 'in_5', 'in_6', 'in_7', null, null, null, null, null, null ];
endstack = [ 's(3)', null, null, null, null, null, null, null, null, null, null, null, null, null ];
