webassembly/ejemplos_results/8/folder8_json_24.txt
value = 8;
fgas = [1, 1, 1, 1, 1, 1, 1, 1];
fsize = [1, 1, 1, 1, 1, 1, 1, 1];
states = 
[|    in_0, in_1, in_2, in_3, in_4, in_5, in_6, in_7,  '.', '.', '.', '.', '.', '.'
 | local_1, in_0, in_1, in_2, in_3, in_4, in_5, in_6, in_7, '.', '.', '.', '.', '.'
 |  's(0)', in_1, in_2, in_3, in_4, in_5, in_6, in_7,  '.', '.', '.', '.', '.', '.'
 |    in_2, in_3, in_4, in_5, in_6, in_7,  '.',  '.',  '.', '.', '.', '.', '.', '.'
 |    in_4, in_5, in_6, in_7,  '.',  '.',  '.',  '.',  '.', '.', '.', '.', '.', '.'
 |  's(1)', in_5, in_6, in_7,  '.',  '.',  '.',  '.',  '.', '.', '.', '.', '.', '.'
 |    in_7, in_6,  '.',  '.',  '.',  '.',  '.',  '.',  '.', '.', '.', '.', '.', '.'
 |  's(2)',  '.',  '.',  '.',  '.',  '.',  '.',  '.',  '.', '.', '.', '.', '.', '.'
 |  's(3)',  '.',  '.',  '.',  '.',  '.',  '.',  '.',  '.', '.', '.', '.', '.', '.'
 |];
register_states = 
[| '.', '.', '.'
 | '.', '.', '.'
 | '.', '.', '.'
 | '.', '.', '.'
 | '.', '.', '.'
 | '.', '.', '.'
 | '.', '.', '.'
 | '.', '.', '.'
 | '.', '.', '.'
 |];
program = [O('local.get_0'), O('i32.add_0'), O('i32.store16_2'), O('i32.store16_3'), O('i32.load_4'), O('i32.store16_5'), O('i32.add_1'), O('i32.load_7')];
% time elapsed: 0.21 s
----------
==========
% time elapsed: 0.22 s
% [value > 7]
